solution status: optimal solution found
objective value:                                   12
thing.thing.chamber[0].thingy.p1_y                  -23 	(obj:0)
thing.thing.chamber[0].thingy.p1_z                  -18 	(obj:0)
thing.thing.dead_bead_y                           -21 	(obj:0)
thing.thing.dead_bead_z                           -22 	(obj:0)
thing.pump2_hole_y                                -24 	(obj:0)
thing.pump2_hole_z                                -18 	(obj:0)
thing.thing.chamber[2].thingy.p0_y                  -23 	(obj:0)
thing.thing.chamber[2].thingy.p0_z                  -23 	(obj:0)
thing.thing.dead_buffer_y                         -22 	(obj:0)
thing.thing.dead_buffer_z                         -25 	(obj:0)
thing.thing.chamber[1].thingy.p2_y                  -21 	(obj:0)
thing.thing.chamber[1].thingy.p2_z                  -20 	(obj:0)
thing.thing.chamber[2].thingy.r4c_y                  -23 	(obj:0)
thing.thing.chamber[2].thingy.r4c_z                  -22 	(obj:0)
thing.thing.chamber[1].thingy.v13_y                  -24 	(obj:0)
thing.thing.chamber[1].thingy.v13_z                  -20 	(obj:0)
thing.thing.chamber[2].thingy.v10_y                  -22 	(obj:0)
thing.thing.chamber[2].thingy.v10_z                  -21 	(obj:0)
thing.thing.dead_cell_y                           -23 	(obj:0)
thing.thing.dead_cell_z                           -25 	(obj:0)
thing.bead_trap_ctrl_hole_y                       -21 	(obj:0)
thing.bead_trap_ctrl_hole_z                       -21 	(obj:0)
thing.horiz_flush_hole_y                          -22 	(obj:0)
thing.horiz_flush_hole_z                          -23 	(obj:0)
thing.thing.chamber[2].thingy.v11_y                  -23 	(obj:0)
thing.thing.chamber[2].thingy.v11_z                  -21 	(obj:0)
thing.thing.chamber[2].thingy.r2c_y                  -21 	(obj:0)
thing.thing.chamber[2].thingy.r2c_z                  -24 	(obj:0)
thing.thing.chamber[1].thingy.r1c_y                  -22 	(obj:0)
thing.thing.chamber[1].thingy.r1c_z                  -22 	(obj:0)
thing.bead_flush_hole_y                           -23 	(obj:0)
thing.bead_flush_hole_z                           -20 	(obj:0)
thing.thing.chamber[2].thingy.r1c_y                  -21 	(obj:0)
thing.thing.chamber[2].thingy.r1c_z                  -23 	(obj:0)
thing.thing.chamber[0].thingy.v13_y                  -21 	(obj:0)
thing.thing.chamber[0].thingy.v13_z                  -19 	(obj:0)
thing.thing.chamber[1].thingy.v12_y                  -24 	(obj:0)
thing.thing.chamber[1].thingy.v12_z                  -19 	(obj:0)
thing.thing.chamber[1].thingy.p0_y                  -24 	(obj:0)
thing.thing.chamber[1].thingy.p0_z                  -21 	(obj:0)
thing.thing.chamber[0].thingy.v12_y                  -20 	(obj:0)
thing.thing.chamber[0].thingy.v12_z                  -19 	(obj:0)
thing.pump0_hole_y                                -22 	(obj:0)
thing.pump0_hole_z                                -20 	(obj:0)
x58                                                 1 	(obj:1)
x67                                                 1 	(obj:1)
x69                                                 1 	(obj:1)
x80                                                 1 	(obj:1)
x81                                                 1 	(obj:1)
x85                                                 2 	(obj:1)
x87                                                 1 	(obj:1)
x97                                                 2 	(obj:1)
x98                                                 2 	(obj:1)
